************************************************************************
file with basedata            : j9015_.bas
initial value random generator: 3121
************************************************************************
projects                      :  1
jobs (incl. supersource/sink ):  92
horizon                       :  451
RESOURCES
  - renewable                 :  4   R
  - nonrenewable              :  0   N
  - doubly constrained        :  0   D
************************************************************************
PROJECT INFORMATION:
pronr.  #jobs rel.date duedate tardcost  MPM-Time
    1     90      0       76       21       76
************************************************************************
PRECEDENCE RELATIONS:
jobnr.    #modes  #successors   successors
   1        1          3           2   3   4
   2        1          3           5   6   7
   3        1          3          15  17  25
   4        1          3           8   9  11
   5        1          1          27
   6        1          2          34  60
   7        1          1          17
   8        1          2          10  52
   9        1          3          12  14  16
  10        1          3          15  31  69
  11        1          3          18  35  85
  12        1          3          13  29  30
  13        1          3          37  65  86
  14        1          2          21  44
  15        1          1          26
  16        1          2          24  57
  17        1          1          20
  18        1          1          19
  19        1          2          32  41
  20        1          1          22
  21        1          1          63
  22        1          3          23  28  49
  23        1          1          39
  24        1          2          45  90
  25        1          3          38  47  87
  26        1          1          54
  27        1          1          42
  28        1          3          33  51  55
  29        1          2          36  48
  30        1          1          43
  31        1          2          46  74
  32        1          1          58
  33        1          1          84
  34        1          3          35  40  43
  35        1          2          83  89
  36        1          3          64  66  76
  37        1          1          64
  38        1          1          81
  39        1          1          60
  40        1          3          62  68  70
  41        1          2          54  59
  42        1          2          47  82
  43        1          1          80
  44        1          1          67
  45        1          1          50
  46        1          1          59
  47        1          1          73
  48        1          2          55  76
  49        1          1          53
  50        1          1          55
  51        1          2          58  73
  52        1          1          74
  53        1          1          78
  54        1          2          56  71
  55        1          1          59
  56        1          2          61  67
  57        1          2          63  66
  58        1          1          61
  59        1          1          77
  60        1          1          69
  61        1          1          86
  62        1          1          75
  63        1          1          86
  64        1          1          72
  65        1          1          73
  66        1          1          88
  67        1          1          70
  68        1          1          91
  69        1          1          77
  70        1          1          84
  71        1          1          82
  72        1          1          87
  73        1          1          85
  74        1          1          82
  75        1          1          87
  76        1          1          81
  77        1          1          79
  78        1          1          83
  79        1          1          80
  80        1          1          91
  81        1          2          83  85
  82        1          1          88
  83        1          1          88
  84        1          1          89
  85        1          1          90
  86        1          1          90
  87        1          1          89
  88        1          1          91
  89        1          1          92
  90        1          1          92
  91        1          1          92
  92        1          0        
************************************************************************
REQUESTS/DURATIONS:
jobnr. mode duration  R 1  R 2  R 3  R 4
------------------------------------------------------------------------
  1      1     0       0    0    0    0
  2      1     8      10    3    1    2
  3      1     2       7   10    1    4
  4      1     1       5    3    3    7
  5      1     9       3    3    1   10
  6      1     2       9    8    5    7
  7      1     1       2    3    5    3
  8      1     7       3    2    2    5
  9      1     5       8    8    4    2
 10      1     9       5    7    1    9
 11      1     6       2    8    2    4
 12      1     9       2    2    3   10
 13      1     5       4    8    2   10
 14      1     9       7    8    2    7
 15      1     2       4    6    3    1
 16      1     5       2    8    6    3
 17      1     8       7   10    1    5
 18      1     3       9    3    5    2
 19      1     6       2    6    4    4
 20      1     3       7    1   10    4
 21      1     9       7    4    1    6
 22      1     2       6    8    1    8
 23      1     1       9    4    5    7
 24      1     1       8    9    7    9
 25      1    10       2   10    8    5
 26      1     7       8    2    6    2
 27      1     6       2    8    9    7
 28      1     1       2    1    3    8
 29      1     7       5    8    2    9
 30      1     8       9    7    5    5
 31      1     8       5   10    2    7
 32      1     2      10    6    4    2
 33      1     2       2    4    1    2
 34      1    10       7    5    6    8
 35      1     1       8    6    7    7
 36      1     6       7    6    9    7
 37      1     4       6   10    6    8
 38      1     9       8    6    3   10
 39      1     3       6    1    9    9
 40      1     7       3    9   10    1
 41      1     9       8    4    9    4
 42      1     1       1   10   10    6
 43      1     3      10    6   10    1
 44      1     1       7    6    4    5
 45      1    10       8    2    9    3
 46      1     4       6    7    5    7
 47      1     4       8   10    8    7
 48      1     5       3    7    7    7
 49      1     4       5    5    3    8
 50      1     6       1    5    5    6
 51      1     2       5    1    1   10
 52      1     2       8    7   10    5
 53      1     8       2    9    9    6
 54      1     5       5    3    9    4
 55      1    10       6    5    7   10
 56      1     1       9    5    4    8
 57      1    10       1    6    7    8
 58      1     1       5    5    5    2
 59      1    10       9   10    1   10
 60      1     1      10    9    6    6
 61      1     4       2    5   10    2
 62      1     8       7    3    8    6
 63      1     1       1    7    6   10
 64      1     1       3    7    5    8
 65      1     5       8    4    3    5
 66      1     1       9    1    4    8
 67      1     5       8    6    5    6
 68      1     1      10   10    2    7
 69      1     9       4    2    6    9
 70      1     4       4    2    7    6
 71      1     8       1   10   10    3
 72      1     1       8    5    8    3
 73      1     7       2    1   10    2
 74      1     6      10    2    2    3
 75      1     5       6    7   10    7
 76      1    10       3    4    2    4
 77      1     6       6    7    9    7
 78      1     4       8    4    1    1
 79      1    10       7    1    5    4
 80      1     4       1    7   10    5
 81      1     2       7    9    6    1
 82      1     3       3    3   10    8
 83      1     6       9    9    2   10
 84      1     2       5    3    2    5
 85      1     3       7    4    3    2
 86      1     3      10    1    3    4
 87      1     7      10    5    8    8
 88      1     1       1    4    4    1
 89      1     7       6    6   10    2
 90      1     8       4    8   10    2
 91      1     8      10    6   10    8
 92      1     0       0    0    0    0
************************************************************************
RESOURCEAVAILABILITIES:
  R 1  R 2  R 3  R 4
   67   69   67   67
************************************************************************
